p cnf 57 173
3 -1 0
3 2 0
1 -2 -3 0
3 4 -5 0
-3 -4 -5 0
3 -4 5 0
-3 4 5 0
7 3 0
7 6 0
-3 -6 -7 0
5 7 -8 0
-5 -7 -8 0
5 -7 8 0
-5 7 8 0
10 2 0
10 -9 0
-2 9 -10 0
11 10 0
11 -9 0
-10 9 -11 0
-12 -11 0
-12 -4 0
11 4 12 0
-13 -12 0
-13 -6 0
12 6 13 0
-16 14 0
-16 15 0
-14 -15 16 0
17 -3 0
17 -16 0
3 16 -17 0
18 -13 0
18 -17 0
13 17 -18 0
20 9 0
20 19 0
-9 -19 -20 0
-21 14 -22 0
21 -14 -22 0
-21 -14 22 0
21 14 22 0
-23 20 0
-23 -22 0
-20 22 23 0
18 -23 -24 0
-18 23 -24 0
18 23 24 0
-18 -23 24 0
-25 -8 0
-25 24 0
8 -24 25 0
-28 27 0
-28 1 0
-27 -1 28 0
28 -27 -29 0
-28 27 -29 0
28 27 29 0
-28 -27 29 0
-29 -1 -30 0
29 1 -30 0
-29 1 30 0
29 -1 30 0
31 -26 0
31 -30 0
26 30 -31 0
32 31 0
32 -30 0
-31 30 -32 0
33 19 0
33 -29 0
-19 29 -33 0
-34 33 0
-34 12 0
-33 -12 34 0
35 32 0
35 34 0
-32 -34 -35 0
-37 -27 0
-37 36 0
27 -36 37 0
37 -38 -39 0
-37 38 -39 0
37 38 39 0
-37 -38 39 0
-35 -39 -40 0
35 39 -40 0
-35 39 40 0
35 -39 40 0
-11 1 -41 0
11 -1 -41 0
-11 -1 41 0
11 1 41 0
-15 41 -42 0
15 -41 -42 0
-15 -41 42 0
15 41 42 0
43 -19 0
43 27 0
19 -27 -43 0
-44 -37 0
-44 -43 0
37 43 44 0
4 -14 -45 0
-4 14 -45 0
4 14 45 0
-4 -14 45 0
-46 -44 0
-46 -45 0
44 45 46 0
-42 -46 -47 0
42 46 -47 0
-42 46 47 0
42 -46 47 0
48 40 0
48 47 0
-40 -47 -48 0
-49 -37 0
-49 11 0
37 -11 49 0
-51 -49 0
-51 50 0
49 -50 51 0
2 -9 -52 0
-2 9 -52 0
2 9 52 0
-2 -9 52 0
53 -51 0
53 52 0
51 -52 -53 0
54 43 0
54 -4 0
-43 4 -54 0
-53 54 -55 0
53 -54 -55 0
-53 -54 55 0
53 54 55 0
56 48 0
56 55 0
-48 -55 -56 0
57 -25 0
57 56 0
25 -56 -57 0
-9 -54 0
-32 -18 -48 -1 51 -19 0
-24 2 44 -30 -34 -21 0
-46 -20 0
-26 16 -32 56 0
-13 -22 -5 17 0
41 37 0
33 -35 0
22 -54 0
56 29 -52 -57 0
-38 -46 12 0
10 51 16 -52 0
37 -54 -16 -40 15 0
-29 -1 46 14 0
43 17 0
-15 54 -17 56 12 0
-35 42 -13 -21 0
-26 38 51 42 -7 0
1 55 -11 0
-18 -31 23 0
14 38 -28 0
50 48 0
45 32 49 -44 30 55 0
-50 -45 26 -35 0
21 -51 -5 -23 -44 0
-37 44 0
-5 20 29 0
-11 10 48 0
21 5 2 11 -31 0
57 0
